c Vstupni promenne (CNF index -> nazev):
c   1 -> x1
c   2 -> x4
c   3 -> x3
c   4 -> x9
c   5 -> x7
c   6 -> x5
c   7 -> x6
c   8 -> x2
c   9 -> x8
c Pomocne promenne:
c   10, 11, 12, 13, 14, 15, 16, 17, 18, 19, 20, 21, 22, 23, 24, 25, 26, 27, 28, 29, 30, 31, 32, 33, 34, 35, 36, 37, 38, 39, 40, 41, 42, 43, 44, 45, 46, 47, 48, 49, 50, 51, 52, 53, 54, 55, 56, 57, 58, 59, 60, 61, 62, 63, 64, 65, 66, 67, 68, 69, 70, 71, 72, 73, 74, 75, 76, 77, 78, 79, 80, 81, 82, 83, 84, 85, 86, 87, 88, 89, 90, 91, 92, 93, 94, 95, 96, 97, 98, 99, 100, 101, 102, 103, 104, 105, 106, 107, 108, 109, 110, 111, 112, 113, 114, 115, 116, 117, 118, 119, 120, 121, 122, 123, 124, 125, 126, 127, 128, 129, 130, 131, 132, 133, 134, 135, 136
c Koren: 136
c
p cnf 136 382
-10 1 0
-10 -2 0
10 -1 2 0
-11 3 0
-11 4 0
11 -3 -4 0
-12 10 11 0
12 -10 0
12 -11 0
-13 5 0
-13 1 0
13 -5 -1 0
-14 2 0
-14 4 0
14 -2 -4 0
-15 13 14 0
15 -13 0
15 -14 0
-16 12 0
-16 15 0
16 -12 -15 0
-17 4 0
-17 4 0
17 -4 -4 0
-18 -2 0
-18 -6 0
18 2 6 0
-19 17 18 0
19 -17 0
19 -18 0
-20 3 0
-20 -7 0
20 -3 7 0
-21 -3 0
-21 7 0
21 3 -7 0
-22 20 21 0
22 -20 0
22 -21 0
-23 19 0
-23 22 0
23 -19 -22 0
-24 16 23 0
24 -16 0
24 -23 0
-25 8 0
-25 -8 0
25 -8 8 0
-26 -7 0
-26 -1 0
26 7 1 0
-27 25 26 0
27 -25 0
27 -26 0
-28 -4 0
-28 5 0
28 4 -5 0
-29 4 0
-29 -7 0
29 -4 7 0
-30 28 29 0
30 -28 0
30 -29 0
-31 27 0
-31 30 0
31 -27 -30 0
-32 8 0
-32 2 0
32 -8 -2 0
-33 -8 0
-33 8 0
33 8 -8 0
-34 32 33 0
34 -32 0
34 -33 0
-35 -6 0
-35 -7 0
35 6 7 0
-36 7 0
-36 -2 0
36 -7 2 0
-37 35 36 0
37 -35 0
37 -36 0
-38 34 0
-38 37 0
38 -34 -37 0
-39 31 38 0
39 -31 0
39 -38 0
-40 24 0
-40 39 0
40 -24 -39 0
-41 -8 0
-41 4 0
41 8 -4 0
-42 3 0
-42 -5 0
42 -3 5 0
-43 41 42 0
43 -41 0
43 -42 0
-44 -4 0
-44 7 0
44 4 -7 0
-45 2 0
-45 7 0
45 -2 -7 0
-46 44 45 0
46 -44 0
46 -45 0
-47 43 0
-47 46 0
47 -43 -46 0
-48 -6 0
-48 2 0
48 6 -2 0
-49 -2 0
-49 -5 0
49 2 5 0
-50 48 49 0
50 -48 0
50 -49 0
-51 -3 0
-51 -3 0
51 3 3 0
-52 4 0
-52 -5 0
52 -4 5 0
-53 51 52 0
53 -51 0
53 -52 0
-54 50 0
-54 53 0
54 -50 -53 0
-55 47 54 0
55 -47 0
55 -54 0
-56 -7 0
-56 3 0
56 7 -3 0
-57 -8 0
-57 8 0
57 8 -8 0
-58 56 57 0
58 -56 0
58 -57 0
-59 3 0
-59 -8 0
59 -3 8 0
-60 -5 0
-60 -4 0
60 5 4 0
-61 59 60 0
61 -59 0
61 -60 0
-62 58 0
-62 61 0
62 -58 -61 0
-63 -4 0
-63 8 0
63 4 -8 0
-64 -7 0
-64 6 0
64 7 -6 0
-65 63 64 0
65 -63 0
65 -64 0
-66 -3 0
-66 -1 0
66 3 1 0
-67 -4 0
-67 4 0
67 4 -4 0
-68 66 67 0
68 -66 0
68 -67 0
-69 65 0
-69 68 0
69 -65 -68 0
-70 62 69 0
70 -62 0
70 -69 0
-71 55 0
-71 70 0
71 -55 -70 0
-72 40 71 0
72 -40 0
72 -71 0
-73 6 0
-73 3 0
73 -6 -3 0
-74 -3 0
-74 7 0
74 3 -7 0
-75 73 74 0
75 -73 0
75 -74 0
-76 -1 0
-76 7 0
76 1 -7 0
-77 -2 0
-77 2 0
77 2 -2 0
-78 76 77 0
78 -76 0
78 -77 0
-79 75 0
-79 78 0
79 -75 -78 0
-80 8 0
-80 -8 0
80 -8 8 0
-81 3 0
-81 -4 0
81 -3 4 0
-82 80 81 0
82 -80 0
82 -81 0
-83 6 0
-83 -2 0
83 -6 2 0
-84 6 0
-84 -7 0
84 -6 7 0
-85 83 84 0
85 -83 0
85 -84 0
-86 82 0
-86 85 0
86 -82 -85 0
-87 79 86 0
87 -79 0
87 -86 0
-88 -4 0
-88 -8 0
88 4 8 0
-89 2 0
-89 7 0
89 -2 -7 0
-90 88 89 0
90 -88 0
90 -89 0
-91 4 0
-91 2 0
91 -4 -2 0
-92 8 0
-92 2 0
92 -8 -2 0
-93 91 92 0
93 -91 0
93 -92 0
-94 90 0
-94 93 0
94 -90 -93 0
-95 1 0
-95 -8 0
95 -1 8 0
-96 6 0
-96 -2 0
96 -6 2 0
-97 95 96 0
97 -95 0
97 -96 0
-98 9 0
-98 9 0
98 -9 -9 0
-99 -2 0
-99 8 0
99 2 -8 0
-100 98 99 0
100 -98 0
100 -99 0
-101 97 0
-101 100 0
101 -97 -100 0
-102 94 101 0
102 -94 0
102 -101 0
-103 87 0
-103 102 0
103 -87 -102 0
-104 -7 0
-104 -5 0
104 7 5 0
-105 -1 0
-105 1 0
105 1 -1 0
-106 104 105 0
106 -104 0
106 -105 0
-107 -7 0
-107 2 0
107 7 -2 0
-108 2 0
-108 -3 0
108 -2 3 0
-109 107 108 0
109 -107 0
109 -108 0
-110 106 0
-110 109 0
110 -106 -109 0
-111 -3 0
-111 -9 0
111 3 9 0
-112 8 0
-112 -4 0
112 -8 4 0
-113 111 112 0
113 -111 0
113 -112 0
-114 1 0
-114 8 0
114 -1 -8 0
-115 3 0
-115 -9 0
115 -3 9 0
-116 114 115 0
116 -114 0
116 -115 0
-117 113 0
-117 116 0
117 -113 -116 0
-118 110 117 0
118 -110 0
118 -117 0
-119 -2 0
-119 -1 0
119 2 1 0
-120 5 0
-120 5 0
120 -5 -5 0
-121 119 120 0
121 -119 0
121 -120 0
-122 -9 0
-122 -5 0
122 9 5 0
-123 -3 0
-123 6 0
123 3 -6 0
-124 122 123 0
124 -122 0
124 -123 0
-125 121 0
-125 124 0
125 -121 -124 0
-126 1 0
-126 7 0
126 -1 -7 0
-127 1 0
-127 -4 0
127 -1 4 0
-128 126 127 0
128 -126 0
128 -127 0
-129 1 0
-129 3 0
129 -1 -3 0
-130 8 0
-130 5 0
130 -8 -5 0
-131 129 130 0
131 -129 0
131 -130 0
-132 128 0
-132 131 0
132 -128 -131 0
-133 125 132 0
133 -125 0
133 -132 0
-134 118 0
-134 133 0
134 -118 -133 0
-135 103 134 0
135 -103 0
135 -134 0
-136 72 0
-136 135 0
136 -72 -135 0
136 0
